p tw 320 1408
1 33
2 34
3 35
4 36
5 37
6 38
7 39
8 40
9 41
10 42
11 43
12 44
13 45
14 46
15 47
16 48
17 49
18 50
19 51
20 52
21 53
22 54
23 55
24 56
25 57
26 58
27 59
28 60
29 61
30 62
31 63
32 64
33 71
33 72
33 73
33 74
33 75
33 76
34 143
34 152
34 159
34 167
34 171
34 173
35 78
35 82
35 93
35 94
35 95
35 96
36 97
36 106
36 112
36 113
36 114
36 115
37 74
37 86
37 129
37 136
37 162
37 165
38 66
38 88
38 112
38 126
38 127
38 128
39 84
39 99
39 118
39 138
39 140
39 141
40 68
40 108
40 135
40 142
40 143
40 144
41 65
41 66
41 67
41 68
41 69
41 70
42 100
42 110
42 126
42 162
42 163
42 164
43 109
43 142
43 145
43 148
43 149
43 150
44 77
44 88
44 89
44 90
44 91
44 92
45 133
45 148
45 151
45 154
45 155
45 156
46 93
46 116
46 122
46 123
46 124
46 125
47 67
47 98
47 102
47 129
47 130
47 131
48 75
48 120
48 130
48 160
48 174
48 176
49 116
49 117
49 118
49 119
49 120
49 121
50 65
50 77
50 78
50 79
50 80
50 81
51 83
51 113
51 117
51 132
51 133
51 134
52 94
52 107
52 122
52 135
52 136
52 137
53 73
53 89
53 103
53 132
53 138
53 139
54 69
54 127
54 155
54 163
54 174
54 175
55 154
55 157
55 158
55 159
55 160
55 161
56 106
56 107
56 108
56 109
56 110
56 111
57 82
57 83
57 84
57 85
57 86
57 87
58 104
58 119
58 123
58 151
58 152
58 153
59 114
59 146
59 158
59 166
59 169
59 170
60 80
60 85
60 90
60 145
60 146
60 147
61 72
61 79
61 102
61 103
61 104
61 105
62 71
62 97
62 98
62 99
62 100
62 101
63 91
63 149
63 157
63 166
63 167
63 168
64 95
64 124
64 140
64 169
64 171
64 172
65 66
65 67
65 68
65 69
65 70
65 77
65 78
65 79
65 80
65 81
66 67
66 68
66 69
66 70
66 88
66 112
66 126
66 127
66 128
67 68
67 69
67 70
67 98
67 102
67 129
67 130
67 131
68 69
68 70
68 108
68 135
68 142
68 143
68 144
69 70
69 127
69 155
69 163
69 174
69 175
70 177
70 178
70 179
70 180
70 181
70 182
71 72
71 73
71 74
71 75
71 76
71 97
71 98
71 99
71 100
71 101
72 73
72 74
72 75
72 76
72 79
72 102
72 103
72 104
72 105
73 74
73 75
73 76
73 89
73 103
73 132
73 138
73 139
74 75
74 76
74 86
74 129
74 136
74 162
74 165
75 76
75 120
75 130
75 160
75 174
75 176
76 183
76 184
76 185
76 186
76 187
76 188
77 78
77 79
77 80
77 81
77 88
77 89
77 90
77 91
77 92
78 79
78 80
78 81
78 82
78 93
78 94
78 95
78 96
79 80
79 81
79 102
79 103
79 104
79 105
80 81
80 85
80 90
80 145
80 146
80 147
81 177
81 189
81 190
81 191
81 192
81 193
82 83
82 84
82 85
82 86
82 87
82 93
82 94
82 95
82 96
83 84
83 85
83 86
83 87
83 113
83 117
83 132
83 133
83 134
84 85
84 86
84 87
84 99
84 118
84 138
84 140
84 141
85 86
85 87
85 90
85 145
85 146
85 147
86 87
86 129
86 136
86 162
86 165
87 194
87 195
87 196
87 197
87 198
87 199
88 89
88 90
88 91
88 92
88 112
88 126
88 127
88 128
89 90
89 91
89 92
89 103
89 132
89 138
89 139
90 91
90 92
90 145
90 146
90 147
91 92
91 149
91 157
91 166
91 167
91 168
92 189
92 200
92 201
92 202
92 203
92 204
93 94
93 95
93 96
93 116
93 122
93 123
93 124
93 125
94 95
94 96
94 107
94 122
94 135
94 136
94 137
95 96
95 124
95 140
95 169
95 171
95 172
96 190
96 194
96 205
96 206
96 207
96 208
97 98
97 99
97 100
97 101
97 106
97 112
97 113
97 114
97 115
98 99
98 100
98 101
98 102
98 129
98 130
98 131
99 100
99 101
99 118
99 138
99 140
99 141
100 101
100 110
100 126
100 162
100 163
100 164
101 183
101 209
101 210
101 211
101 212
101 213
102 103
102 104
102 105
102 129
102 130
102 131
103 104
103 105
103 132
103 138
103 139
104 105
104 119
104 123
104 151
104 152
104 153
105 184
105 191
105 214
105 215
105 216
105 217
106 107
106 108
106 109
106 110
106 111
106 112
106 113
106 114
106 115
107 108
107 109
107 110
107 111
107 122
107 135
107 136
107 137
108 109
108 110
108 111
108 135
108 142
108 143
108 144
109 110
109 111
109 142
109 145
109 148
109 149
109 150
110 111
110 126
110 162
110 163
110 164
111 218
111 219
111 220
111 221
111 222
111 223
112 113
112 114
112 115
112 126
112 127
112 128
113 114
113 115
113 117
113 132
113 133
113 134
114 115
114 146
114 158
114 166
114 169
114 170
115 209
115 218
115 224
115 225
115 226
115 227
116 117
116 118
116 119
116 120
116 121
116 122
116 123
116 124
116 125
117 118
117 119
117 120
117 121
117 132
117 133
117 134
118 119
118 120
118 121
118 138
118 140
118 141
119 120
119 121
119 123
119 151
119 152
119 153
120 121
120 130
120 160
120 174
120 176
121 228
121 229
121 230
121 231
121 232
121 233
122 123
122 124
122 125
122 135
122 136
122 137
123 124
123 125
123 151
123 152
123 153
124 125
124 140
124 169
124 171
124 172
125 205
125 228
125 234
125 235
125 236
125 237
126 127
126 128
126 162
126 163
126 164
127 128
127 155
127 163
127 174
127 175
128 178
128 200
128 224
128 238
128 239
128 240
129 130
129 131
129 136
129 162
129 165
130 131
130 160
130 174
130 176
131 179
131 210
131 214
131 241
131 242
131 243
132 133
132 134
132 138
132 139
133 134
133 148
133 151
133 154
133 155
133 156
134 195
134 225
134 229
134 244
134 245
134 246
135 136
135 137
135 142
135 143
135 144
136 137
136 162
136 165
137 206
137 219
137 234
137 247
137 248
137 249
138 139
138 140
138 141
139 185
139 201
139 215
139 244
139 250
139 251
140 141
140 169
140 171
140 172
141 196
141 211
141 230
141 250
141 252
141 253
142 143
142 144
142 145
142 148
142 149
142 150
143 144
143 152
143 159
143 167
143 171
143 173
144 180
144 220
144 247
144 254
144 255
144 256
145 146
145 147
145 148
145 149
145 150
146 147
146 158
146 166
146 169
146 170
147 192
147 197
147 202
147 257
147 258
147 259
148 149
148 150
148 151
148 154
148 155
148 156
149 150
149 157
149 166
149 167
149 168
150 221
150 254
150 257
150 260
150 261
150 262
151 152
151 153
151 154
151 155
151 156
152 153
152 159
152 167
152 171
152 173
153 216
153 231
153 235
153 263
153 264
153 265
154 155
154 156
154 157
154 158
154 159
154 160
154 161
155 156
155 163
155 174
155 175
156 245
156 260
156 263
156 266
156 267
156 268
157 158
157 159
157 160
157 161
157 166
157 167
157 168
158 159
158 160
158 161
158 166
158 169
158 170
159 160
159 161
159 167
159 171
159 173
160 161
160 174
160 176
161 266
161 269
161 270
161 271
161 272
161 273
162 163
162 164
162 165
163 164
163 174
163 175
164 212
164 222
164 238
164 274
164 275
164 276
165 186
165 198
165 241
165 248
165 274
165 277
166 167
166 168
166 169
166 170
167 168
167 171
167 173
168 203
168 261
168 269
168 278
168 279
168 280
169 170
169 171
169 172
170 226
170 258
170 270
170 278
170 281
170 282
171 172
171 173
172 207
172 236
172 252
172 281
172 283
172 284
173 255
173 264
173 271
173 279
173 283
173 285
174 175
174 176
175 181
175 239
175 267
175 275
175 286
175 287
176 187
176 232
176 242
176 272
176 286
176 288
177 178
177 179
177 180
177 181
177 182
177 189
177 190
177 191
177 192
177 193
178 179
178 180
178 181
178 182
178 200
178 224
178 238
178 239
178 240
179 180
179 181
179 182
179 210
179 214
179 241
179 242
179 243
180 181
180 182
180 220
180 247
180 254
180 255
180 256
181 182
181 239
181 267
181 275
181 286
181 287
182 312
183 184
183 185
183 186
183 187
183 188
183 209
183 210
183 211
183 212
183 213
184 185
184 186
184 187
184 188
184 191
184 214
184 215
184 216
184 217
185 186
185 187
185 188
185 201
185 215
185 244
185 250
185 251
186 187
186 188
186 198
186 241
186 248
186 274
186 277
187 188
187 232
187 242
187 272
187 286
187 288
188 320
189 190
189 191
189 192
189 193
189 200
189 201
189 202
189 203
189 204
190 191
190 192
190 193
190 194
190 205
190 206
190 207
190 208
191 192
191 193
191 214
191 215
191 216
191 217
192 193
192 197
192 202
192 257
192 258
192 259
193 303
194 195
194 196
194 197
194 198
194 199
194 205
194 206
194 207
194 208
195 196
195 197
195 198
195 199
195 225
195 229
195 244
195 245
195 246
196 197
196 198
196 199
196 211
196 230
196 250
196 252
196 253
197 198
197 199
197 202
197 257
197 258
197 259
198 199
198 241
198 248
198 274
198 277
199 296
200 201
200 202
200 203
200 204
200 224
200 238
200 239
200 240
201 202
201 203
201 204
201 215
201 244
201 250
201 251
202 203
202 204
202 257
202 258
202 259
203 204
203 261
203 269
203 278
203 279
203 280
204 309
205 206
205 207
205 208
205 228
205 234
205 235
205 236
205 237
206 207
206 208
206 219
206 234
206 247
206 248
206 249
207 208
207 236
207 252
207 281
207 283
207 284
208 318
209 210
209 211
209 212
209 213
209 218
209 224
209 225
209 226
209 227
210 211
210 212
210 213
210 214
210 241
210 242
210 243
211 212
211 213
211 230
211 250
211 252
211 253
212 213
212 222
212 238
212 274
212 275
212 276
213 291
214 215
214 216
214 217
214 241
214 242
214 243
215 216
215 217
215 244
215 250
215 251
216 217
216 231
216 235
216 263
216 264
216 265
217 292
218 219
218 220
218 221
218 222
218 223
218 224
218 225
218 226
218 227
219 220
219 221
219 222
219 223
219 234
219 247
219 248
219 249
220 221
220 222
220 223
220 247
220 254
220 255
220 256
221 222
221 223
221 254
221 257
221 260
221 261
221 262
222 223
222 238
222 274
222 275
222 276
223 297
224 225
224 226
224 227
224 238
224 239
224 240
225 226
225 227
225 229
225 244
225 245
225 246
226 227
226 258
226 270
226 278
226 281
226 282
227 317
228 229
228 230
228 231
228 232
228 233
228 234
228 235
228 236
228 237
229 230
229 231
229 232
229 233
229 244
229 245
229 246
230 231
230 232
230 233
230 250
230 252
230 253
231 232
231 233
231 235
231 263
231 264
231 265
232 233
232 242
232 272
232 286
232 288
233 304
234 235
234 236
234 237
234 247
234 248
234 249
235 236
235 237
235 263
235 264
235 265
236 237
236 252
236 281
236 283
236 284
237 307
238 239
238 240
238 274
238 275
238 276
239 240
239 267
239 275
239 286
239 287
240 315
241 242
241 243
241 248
241 274
241 277
242 243
242 272
242 286
242 288
243 306
244 245
244 246
244 250
244 251
245 246
245 260
245 263
245 266
245 267
245 268
246 302
247 248
247 249
247 254
247 255
247 256
248 249
248 274
248 277
249 301
250 251
250 252
250 253
251 300
252 253
252 281
252 283
252 284
253 314
254 255
254 256
254 257
254 260
254 261
254 262
255 256
255 264
255 271
255 279
255 283
255 285
256 313
257 258
257 259
257 260
257 261
257 262
258 259
258 270
258 278
258 281
258 282
259 293
260 261
260 262
260 263
260 266
260 267
260 268
261 262
261 269
261 278
261 279
261 280
262 310
263 264
263 265
263 266
263 267
263 268
264 265
264 271
264 279
264 283
264 285
265 295
266 267
266 268
266 269
266 270
266 271
266 272
266 273
267 268
267 275
267 286
267 287
268 308
269 270
269 271
269 272
269 273
269 278
269 279
269 280
270 271
270 272
270 273
270 278
270 281
270 282
271 272
271 273
271 279
271 283
271 285
272 273
272 286
272 288
273 298
274 275
274 276
274 277
275 276
275 286
275 287
276 311
277 316
278 279
278 280
278 281
278 282
279 280
279 283
279 285
280 290
281 282
281 283
281 284
282 294
283 284
283 285
284 289
285 319
286 287
286 288
287 299
288 305
